(declare-var n Real)
(declare-var r Real)
(declare-var r1 Real)
(declare-var r2 Real)
(declare-rel F (Real Real))
(declare-rel E ())
(declare-rel entry ())

(rule entry)
(rule (=> entry (F 0 0)))
(rule (=> entry (F 1 1)))
(rule (=> (and (> n 1) (F (- n 1) r1) (F (- n 2) r2)) (F n (+ r1 r2))))
;(rule (=> (and (F n r) (>= n 5) (< r n)) E))
;(rule (=> (and (F n r) (> n 1) (< r 1)) E))
(rule (=> (and (F n r) (>= n 8) (<= r (* 2 n))) E))
(query E) 
